8
0, 533, 670, 327, 95, 794, 808, 133
533, 0, 355, 481, 478, 448, 638, 440
670, 355, 0, 423, 664, 788, 292, 538
327, 481, 423, 0, 376, 886, 490, 211
95, 478, 664, 376, 0, 703, 834, 165
794, 448, 788, 886, 703, 0, 1078, 765
808, 638, 292, 490, 834, 1078, 0, 678
133, 440, 538, 211, 165, 765, 678, 0
